(set-logic QF_BV)
(declare-fun _substvar_651_ () (_ BitVec 16))
(declare-fun _substvar_649_ () (_ BitVec 16))
(assert (let ((?v_20 (bvmul (concat (_ bv0 16) _substvar_651_) (concat (_ bv0 16) _substvar_649_)))) (let ((?v_21 ((_ extract 15 15) ?v_20)) (?v_0 ((_ extract 15 15) _substvar_651_))) (let ( (?v_19 (bvmul (concat (ite (= (_ bv1 1) ?v_0) (_ bv1 1) (_ bv0 1)) _substvar_651_) (concat (_ bv0 1) _substvar_649_)))) (not (= (bvand (bvnot (bvand (bvand (bvand (bvand (bvand (bvand (bvand (bvand (bvand (bvand (bvand (bvand (bvand (bvand (bvnot (_ bv0 1)) (bvnot (_ bv0 1))) (bvnot (_ bv0 1))) (bvnot (_ bv0 1))) (bvnot (_ bv0 1))) (bvnot (_ bv0 1))) (bvnot (_ bv0 1))) (bvnot (_ bv0 1))) (bvnot (_ bv0 1))) (bvnot (_ bv0 1))) (bvnot (_ bv0 1))) (bvnot (_ bv0 1))) (bvnot (_ bv0 1))) (bvnot (_ bv0 1))) (ite (= ((_ extract 16 16) ?v_19) (_ bv0 1)) (_ bv1 1) (_ bv0 1)))) (bvand (bvand (bvand (bvand (bvand (bvand (bvand (bvand (bvand (bvand (bvand (bvand (bvand (bvand (bvand (ite (= ((_ extract 31 31) ?v_20) ?v_21) (_ bv1 1) (_ bv0 1)) (ite (= ((_ extract 30 30) ?v_20) ?v_21) (_ bv1 1) (_ bv0 1))) (ite (= ((_ extract 29 29) ?v_20) ?v_21) (_ bv1 1) (_ bv0 1))) (ite (= ((_ extract 28 28) ?v_20) ?v_21) (_ bv1 1) (_ bv0 1))) (ite (= ((_ extract 27 27) ?v_20) ?v_21) (_ bv1 1) (_ bv0 1))) (ite (= ((_ extract 26 26) ?v_20) ?v_21) (_ bv1 1) (_ bv0 1))) (ite (= ((_ extract 25 25) ?v_20) ?v_21) (_ bv1 1) (_ bv0 1))) (ite (= ((_ extract 24 24) ?v_20) ?v_21) (_ bv1 1) (_ bv0 1))) (ite (= ((_ extract 23 23) ?v_20) ?v_21) (_ bv1 1) (_ bv0 1))) (ite (= ((_ extract 22 22) ?v_20) ?v_21) (_ bv1 1) (_ bv0 1))) (ite (= ((_ extract 21 21) ?v_20) ?v_21) (_ bv1 1) (_ bv0 1))) (ite (= ((_ extract 20 20) ?v_20) ?v_21) (_ bv1 1) (_ bv0 1))) (ite (= ((_ extract 19 19) ?v_20) ?v_21) (_ bv1 1) (_ bv0 1))) (ite (= ((_ extract 18 18) ?v_20) ?v_21) (_ bv1 1) (_ bv0 1))) (ite (= ((_ extract 17 17) ?v_20) ?v_21) (_ bv1 1) (_ bv0 1))) (ite (= ((_ extract 16 16) ?v_20) ?v_21) (_ bv1 1) (_ bv0 1)))) (_ bv0 1)))))))
(check-sat)
(exit)
